\ENCODING=ISO-8859-1
\Problem name: 

Maximize
 obj1: 100 x_0_0 + 100 x_0_1 + 100 x_0_2 + 100 x_0_3 + 100 x_0_4 + 94 x_1_0
       + 94 x_1_1 + 94 x_1_2 + 94 x_1_3 + 94 x_1_4 + 506 x_2_0 + 506 x_2_1
       + 506 x_2_2 + 506 x_2_3 + 506 x_2_4 + 416 x_3_0 + 416 x_3_1 + 416 x_3_2
       + 416 x_3_3 + 416 x_3_4 + 992 x_4_0 + 992 x_4_1 + 992 x_4_2 + 992 x_4_3
       + 992 x_4_4 + 649 x_5_0 + 649 x_5_1 + 649 x_5_2 + 649 x_5_3 + 649 x_5_4
       + 237 x_6_0 + 237 x_6_1 + 237 x_6_2 + 237 x_6_3 + 237 x_6_4 + 457 x_7_0
       + 457 x_7_1 + 457 x_7_2 + 457 x_7_3 + 457 x_7_4 + 815 x_8_0 + 815 x_8_1
       + 815 x_8_2 + 815 x_8_3 + 815 x_8_4 + 446 x_9_0 + 446 x_9_1 + 446 x_9_2
       + 446 x_9_3 + 446 x_9_4 + 422 x_10_0 + 422 x_10_1 + 422 x_10_2
       + 422 x_10_3 + 422 x_10_4 + 791 x_11_0 + 791 x_11_1 + 791 x_11_2
       + 791 x_11_3 + 791 x_11_4 + 359 x_12_0 + 359 x_12_1 + 359 x_12_2
       + 359 x_12_3 + 359 x_12_4 + 667 x_13_0 + 667 x_13_1 + 667 x_13_2
       + 667 x_13_3 + 667 x_13_4 + 598 x_14_0 + 598 x_14_1 + 598 x_14_2
       + 598 x_14_3 + 598 x_14_4 + 7 x_15_0 + 7 x_15_1 + 7 x_15_2 + 7 x_15_3
       + 7 x_15_4 + 544 x_16_0 + 544 x_16_1 + 544 x_16_2 + 544 x_16_3
       + 544 x_16_4 + 334 x_17_0 + 334 x_17_1 + 334 x_17_2 + 334 x_17_3
       + 334 x_17_4 + 766 x_18_0 + 766 x_18_1 + 766 x_18_2 + 766 x_18_3
       + 766 x_18_4 + 994 x_19_0 + 994 x_19_1 + 994 x_19_2 + 994 x_19_3
       + 994 x_19_4 + 893 x_20_0 + 893 x_20_1 + 893 x_20_2 + 893 x_20_3
       + 893 x_20_4 + 633 x_21_0 + 633 x_21_1 + 633 x_21_2 + 633 x_21_3
       + 633 x_21_4 + 131 x_22_0 + 131 x_22_1 + 131 x_22_2 + 131 x_22_3
       + 131 x_22_4 + 428 x_23_0 + 428 x_23_1 + 428 x_23_2 + 428 x_23_3
       + 428 x_23_4 + 700 x_24_0 + 700 x_24_1 + 700 x_24_2 + 700 x_24_3
       + 700 x_24_4 + 617 x_25_0 + 617 x_25_1 + 617 x_25_2 + 617 x_25_3
       + 617 x_25_4 + 874 x_26_0 + 874 x_26_1 + 874 x_26_2 + 874 x_26_3
       + 874 x_26_4 + 720 x_27_0 + 720 x_27_1 + 720 x_27_2 + 720 x_27_3
       + 720 x_27_4 + 419 x_28_0 + 419 x_28_1 + 419 x_28_2 + 419 x_28_3
       + 419 x_28_4 + 794 x_29_0 + 794 x_29_1 + 794 x_29_2 + 794 x_29_3
       + 794 x_29_4 + 196 x_30_0 + 196 x_30_1 + 196 x_30_2 + 196 x_30_3
       + 196 x_30_4 + 997 x_31_0 + 997 x_31_1 + 997 x_31_2 + 997 x_31_3
       + 997 x_31_4 + 116 x_32_0 + 116 x_32_1 + 116 x_32_2 + 116 x_32_3
       + 116 x_32_4 + 908 x_33_0 + 908 x_33_1 + 908 x_33_2 + 908 x_33_3
       + 908 x_33_4 + 539 x_34_0 + 539 x_34_1 + 539 x_34_2 + 539 x_34_3
       + 539 x_34_4 + 707 x_35_0 + 707 x_35_1 + 707 x_35_2 + 707 x_35_3
       + 707 x_35_4 + 569 x_36_0 + 569 x_36_1 + 569 x_36_2 + 569 x_36_3
       + 569 x_36_4 + 537 x_37_0 + 537 x_37_1 + 537 x_37_2 + 537 x_37_3
       + 537 x_37_4 + 931 x_38_0 + 931 x_38_1 + 931 x_38_2 + 931 x_38_3
       + 931 x_38_4 + 726 x_39_0 + 726 x_39_1 + 726 x_39_2 + 726 x_39_3
       + 726 x_39_4 + 487 x_40_0 + 487 x_40_1 + 487 x_40_2 + 487 x_40_3
       + 487 x_40_4 + 772 x_41_0 + 772 x_41_1 + 772 x_41_2 + 772 x_41_3
       + 772 x_41_4 + 513 x_42_0 + 513 x_42_1 + 513 x_42_2 + 513 x_42_3
       + 513 x_42_4 + 81 x_43_0 + 81 x_43_1 + 81 x_43_2 + 81 x_43_3 + 81 x_43_4
       + 943 x_44_0 + 943 x_44_1 + 943 x_44_2 + 943 x_44_3 + 943 x_44_4
       + 58 x_45_0 + 58 x_45_1 + 58 x_45_2 + 58 x_45_3 + 58 x_45_4 + 303 x_46_0
       + 303 x_46_1 + 303 x_46_2 + 303 x_46_3 + 303 x_46_4 + 764 x_47_0
       + 764 x_47_1 + 764 x_47_2 + 764 x_47_3 + 764 x_47_4 + 536 x_48_0
       + 536 x_48_1 + 536 x_48_2 + 536 x_48_3 + 536 x_48_4 + 724 x_49_0
       + 724 x_49_1 + 724 x_49_2 + 724 x_49_3 + 724 x_49_4 + 789 x_50_0
       + 789 x_50_1 + 789 x_50_2 + 789 x_50_3 + 789 x_50_4 + 479 x_51_0
       + 479 x_51_1 + 479 x_51_2 + 479 x_51_3 + 479 x_51_4 + 142 x_52_0
       + 142 x_52_1 + 142 x_52_2 + 142 x_52_3 + 142 x_52_4 + 339 x_53_0
       + 339 x_53_1 + 339 x_53_2 + 339 x_53_3 + 339 x_53_4 + 641 x_54_0
       + 641 x_54_1 + 641 x_54_2 + 641 x_54_3 + 641 x_54_4 + 196 x_55_0
       + 196 x_55_1 + 196 x_55_2 + 196 x_55_3 + 196 x_55_4 + 494 x_56_0
       + 494 x_56_1 + 494 x_56_2 + 494 x_56_3 + 494 x_56_4 + 66 x_57_0
       + 66 x_57_1 + 66 x_57_2 + 66 x_57_3 + 66 x_57_4 + 824 x_58_0
       + 824 x_58_1 + 824 x_58_2 + 824 x_58_3 + 824 x_58_4 + 208 x_59_0
       + 208 x_59_1 + 208 x_59_2 + 208 x_59_3 + 208 x_59_4 + 711 x_60_0
       + 711 x_60_1 + 711 x_60_2 + 711 x_60_3 + 711 x_60_4 + 800 x_61_0
       + 800 x_61_1 + 800 x_61_2 + 800 x_61_3 + 800 x_61_4 + 314 x_62_0
       + 314 x_62_1 + 314 x_62_2 + 314 x_62_3 + 314 x_62_4 + 289 x_63_0
       + 289 x_63_1 + 289 x_63_2 + 289 x_63_3 + 289 x_63_4 + 401 x_64_0
       + 401 x_64_1 + 401 x_64_2 + 401 x_64_3 + 401 x_64_4 + 466 x_65_0
       + 466 x_65_1 + 466 x_65_2 + 466 x_65_3 + 466 x_65_4 + 689 x_66_0
       + 689 x_66_1 + 689 x_66_2 + 689 x_66_3 + 689 x_66_4 + 833 x_67_0
       + 833 x_67_1 + 833 x_67_2 + 833 x_67_3 + 833 x_67_4 + 225 x_68_0
       + 225 x_68_1 + 225 x_68_2 + 225 x_68_3 + 225 x_68_4 + 244 x_69_0
       + 244 x_69_1 + 244 x_69_2 + 244 x_69_3 + 244 x_69_4 + 849 x_70_0
       + 849 x_70_1 + 849 x_70_2 + 849 x_70_3 + 849 x_70_4 + 113 x_71_0
       + 113 x_71_1 + 113 x_71_2 + 113 x_71_3 + 113 x_71_4 + 379 x_72_0
       + 379 x_72_1 + 379 x_72_2 + 379 x_72_3 + 379 x_72_4 + 361 x_73_0
       + 361 x_73_1 + 361 x_73_2 + 361 x_73_3 + 361 x_73_4 + 65 x_74_0
       + 65 x_74_1 + 65 x_74_2 + 65 x_74_3 + 65 x_74_4 + 486 x_75_0
       + 486 x_75_1 + 486 x_75_2 + 486 x_75_3 + 486 x_75_4 + 686 x_76_0
       + 686 x_76_1 + 686 x_76_2 + 686 x_76_3 + 686 x_76_4 + 286 x_77_0
       + 286 x_77_1 + 286 x_77_2 + 286 x_77_3 + 286 x_77_4 + 889 x_78_0
       + 889 x_78_1 + 889 x_78_2 + 889 x_78_3 + 889 x_78_4 + 24 x_79_0
       + 24 x_79_1 + 24 x_79_2 + 24 x_79_3 + 24 x_79_4 + 491 x_80_0
       + 491 x_80_1 + 491 x_80_2 + 491 x_80_3 + 491 x_80_4 + 891 x_81_0
       + 891 x_81_1 + 891 x_81_2 + 891 x_81_3 + 891 x_81_4 + 90 x_82_0
       + 90 x_82_1 + 90 x_82_2 + 90 x_82_3 + 90 x_82_4 + 181 x_83_0
       + 181 x_83_1 + 181 x_83_2 + 181 x_83_3 + 181 x_83_4 + 214 x_84_0
       + 214 x_84_1 + 214 x_84_2 + 214 x_84_3 + 214 x_84_4 + 17 x_85_0
       + 17 x_85_1 + 17 x_85_2 + 17 x_85_3 + 17 x_85_4 + 472 x_86_0
       + 472 x_86_1 + 472 x_86_2 + 472 x_86_3 + 472 x_86_4 + 418 x_87_0
       + 418 x_87_1 + 418 x_87_2 + 418 x_87_3 + 418 x_87_4 + 419 x_88_0
       + 419 x_88_1 + 419 x_88_2 + 419 x_88_3 + 419 x_88_4 + 356 x_89_0
       + 356 x_89_1 + 356 x_89_2 + 356 x_89_3 + 356 x_89_4 + 682 x_90_0
       + 682 x_90_1 + 682 x_90_2 + 682 x_90_3 + 682 x_90_4 + 306 x_91_0
       + 306 x_91_1 + 306 x_91_2 + 306 x_91_3 + 306 x_91_4 + 201 x_92_0
       + 201 x_92_1 + 201 x_92_2 + 201 x_92_3 + 201 x_92_4 + 385 x_93_0
       + 385 x_93_1 + 385 x_93_2 + 385 x_93_3 + 385 x_93_4 + 952 x_94_0
       + 952 x_94_1 + 952 x_94_2 + 952 x_94_3 + 952 x_94_4 + 500 x_95_0
       + 500 x_95_1 + 500 x_95_2 + 500 x_95_3 + 500 x_95_4 + 194 x_96_0
       + 194 x_96_1 + 194 x_96_2 + 194 x_96_3 + 194 x_96_4 + 737 x_97_0
       + 737 x_97_1 + 737 x_97_2 + 737 x_97_3 + 737 x_97_4 + 324 x_98_0
       + 324 x_98_1 + 324 x_98_2 + 324 x_98_3 + 324 x_98_4 + 992 x_99_0
       + 992 x_99_1 + 992 x_99_2 + 992 x_99_3 + 992 x_99_4 + 224 x_100_0
       + 224 x_100_1 + 224 x_100_2 + 224 x_100_3 + 224 x_100_4
Subject To
 c1:   995 x_0_0 + 485 x_1_0 + 326 x_2_0 + 248 x_3_0 + 421 x_4_0 + 322 x_5_0
       + 795 x_6_0 + 43 x_7_0 + 845 x_8_0 + 955 x_9_0 + 252 x_10_0 + 9 x_11_0
       + 901 x_12_0 + 122 x_13_0 + 94 x_14_0 + 738 x_15_0 + 574 x_16_0
       + 715 x_17_0 + 882 x_18_0 + 367 x_19_0 + 984 x_20_0 + 299 x_21_0
       + 433 x_22_0 + 682 x_23_0 + 72 x_24_0 + 874 x_25_0 + 138 x_26_0
       + 856 x_27_0 + 145 x_28_0 + 995 x_29_0 + 529 x_30_0 + 199 x_31_0
       + 277 x_32_0 + 97 x_33_0 + 719 x_34_0 + 242 x_35_0 + 107 x_36_0
       + 122 x_37_0 + 70 x_38_0 + 98 x_39_0 + 600 x_40_0 + 645 x_41_0
       + 267 x_42_0 + 972 x_43_0 + 895 x_44_0 + 213 x_45_0 + 748 x_46_0
       + 487 x_47_0 + 923 x_48_0 + 29 x_49_0 + 674 x_50_0 + 540 x_51_0
       + 554 x_52_0 + 467 x_53_0 + 46 x_54_0 + 710 x_55_0 + 553 x_56_0
       + 191 x_57_0 + 724 x_58_0 + 730 x_59_0 + 988 x_60_0 + 90 x_61_0
       + 340 x_62_0 + 549 x_63_0 + 196 x_64_0 + 865 x_65_0 + 678 x_66_0
       + 570 x_67_0 + 936 x_68_0 + 722 x_69_0 + 651 x_70_0 + 123 x_71_0
       + 431 x_72_0 + 508 x_73_0 + 585 x_74_0 + 853 x_75_0 + 642 x_76_0
       + 992 x_77_0 + 725 x_78_0 + 286 x_79_0 + 812 x_80_0 + 859 x_81_0
       + 663 x_82_0 + 88 x_83_0 + 179 x_84_0 + 187 x_85_0 + 619 x_86_0
       + 261 x_87_0 + 846 x_88_0 + 192 x_89_0 + 261 x_90_0 + 514 x_91_0
       + 886 x_92_0 + 530 x_93_0 + 849 x_94_0 + 294 x_95_0 + 799 x_96_0
       + 391 x_97_0 + 330 x_98_0 + 298 x_99_0 + 790 x_100_0 <= 100
 c2:   995 x_0_1 + 485 x_1_1 + 326 x_2_1 + 248 x_3_1 + 421 x_4_1 + 322 x_5_1
       + 795 x_6_1 + 43 x_7_1 + 845 x_8_1 + 955 x_9_1 + 252 x_10_1 + 9 x_11_1
       + 901 x_12_1 + 122 x_13_1 + 94 x_14_1 + 738 x_15_1 + 574 x_16_1
       + 715 x_17_1 + 882 x_18_1 + 367 x_19_1 + 984 x_20_1 + 299 x_21_1
       + 433 x_22_1 + 682 x_23_1 + 72 x_24_1 + 874 x_25_1 + 138 x_26_1
       + 856 x_27_1 + 145 x_28_1 + 995 x_29_1 + 529 x_30_1 + 199 x_31_1
       + 277 x_32_1 + 97 x_33_1 + 719 x_34_1 + 242 x_35_1 + 107 x_36_1
       + 122 x_37_1 + 70 x_38_1 + 98 x_39_1 + 600 x_40_1 + 645 x_41_1
       + 267 x_42_1 + 972 x_43_1 + 895 x_44_1 + 213 x_45_1 + 748 x_46_1
       + 487 x_47_1 + 923 x_48_1 + 29 x_49_1 + 674 x_50_1 + 540 x_51_1
       + 554 x_52_1 + 467 x_53_1 + 46 x_54_1 + 710 x_55_1 + 553 x_56_1
       + 191 x_57_1 + 724 x_58_1 + 730 x_59_1 + 988 x_60_1 + 90 x_61_1
       + 340 x_62_1 + 549 x_63_1 + 196 x_64_1 + 865 x_65_1 + 678 x_66_1
       + 570 x_67_1 + 936 x_68_1 + 722 x_69_1 + 651 x_70_1 + 123 x_71_1
       + 431 x_72_1 + 508 x_73_1 + 585 x_74_1 + 853 x_75_1 + 642 x_76_1
       + 992 x_77_1 + 725 x_78_1 + 286 x_79_1 + 812 x_80_1 + 859 x_81_1
       + 663 x_82_1 + 88 x_83_1 + 179 x_84_1 + 187 x_85_1 + 619 x_86_1
       + 261 x_87_1 + 846 x_88_1 + 192 x_89_1 + 261 x_90_1 + 514 x_91_1
       + 886 x_92_1 + 530 x_93_1 + 849 x_94_1 + 294 x_95_1 + 799 x_96_1
       + 391 x_97_1 + 330 x_98_1 + 298 x_99_1 + 790 x_100_1 <= 100
 c3:   995 x_0_2 + 485 x_1_2 + 326 x_2_2 + 248 x_3_2 + 421 x_4_2 + 322 x_5_2
       + 795 x_6_2 + 43 x_7_2 + 845 x_8_2 + 955 x_9_2 + 252 x_10_2 + 9 x_11_2
       + 901 x_12_2 + 122 x_13_2 + 94 x_14_2 + 738 x_15_2 + 574 x_16_2
       + 715 x_17_2 + 882 x_18_2 + 367 x_19_2 + 984 x_20_2 + 299 x_21_2
       + 433 x_22_2 + 682 x_23_2 + 72 x_24_2 + 874 x_25_2 + 138 x_26_2
       + 856 x_27_2 + 145 x_28_2 + 995 x_29_2 + 529 x_30_2 + 199 x_31_2
       + 277 x_32_2 + 97 x_33_2 + 719 x_34_2 + 242 x_35_2 + 107 x_36_2
       + 122 x_37_2 + 70 x_38_2 + 98 x_39_2 + 600 x_40_2 + 645 x_41_2
       + 267 x_42_2 + 972 x_43_2 + 895 x_44_2 + 213 x_45_2 + 748 x_46_2
       + 487 x_47_2 + 923 x_48_2 + 29 x_49_2 + 674 x_50_2 + 540 x_51_2
       + 554 x_52_2 + 467 x_53_2 + 46 x_54_2 + 710 x_55_2 + 553 x_56_2
       + 191 x_57_2 + 724 x_58_2 + 730 x_59_2 + 988 x_60_2 + 90 x_61_2
       + 340 x_62_2 + 549 x_63_2 + 196 x_64_2 + 865 x_65_2 + 678 x_66_2
       + 570 x_67_2 + 936 x_68_2 + 722 x_69_2 + 651 x_70_2 + 123 x_71_2
       + 431 x_72_2 + 508 x_73_2 + 585 x_74_2 + 853 x_75_2 + 642 x_76_2
       + 992 x_77_2 + 725 x_78_2 + 286 x_79_2 + 812 x_80_2 + 859 x_81_2
       + 663 x_82_2 + 88 x_83_2 + 179 x_84_2 + 187 x_85_2 + 619 x_86_2
       + 261 x_87_2 + 846 x_88_2 + 192 x_89_2 + 261 x_90_2 + 514 x_91_2
       + 886 x_92_2 + 530 x_93_2 + 849 x_94_2 + 294 x_95_2 + 799 x_96_2
       + 391 x_97_2 + 330 x_98_2 + 298 x_99_2 + 790 x_100_2 <= 100
 c4:   995 x_0_3 + 485 x_1_3 + 326 x_2_3 + 248 x_3_3 + 421 x_4_3 + 322 x_5_3
       + 795 x_6_3 + 43 x_7_3 + 845 x_8_3 + 955 x_9_3 + 252 x_10_3 + 9 x_11_3
       + 901 x_12_3 + 122 x_13_3 + 94 x_14_3 + 738 x_15_3 + 574 x_16_3
       + 715 x_17_3 + 882 x_18_3 + 367 x_19_3 + 984 x_20_3 + 299 x_21_3
       + 433 x_22_3 + 682 x_23_3 + 72 x_24_3 + 874 x_25_3 + 138 x_26_3
       + 856 x_27_3 + 145 x_28_3 + 995 x_29_3 + 529 x_30_3 + 199 x_31_3
       + 277 x_32_3 + 97 x_33_3 + 719 x_34_3 + 242 x_35_3 + 107 x_36_3
       + 122 x_37_3 + 70 x_38_3 + 98 x_39_3 + 600 x_40_3 + 645 x_41_3
       + 267 x_42_3 + 972 x_43_3 + 895 x_44_3 + 213 x_45_3 + 748 x_46_3
       + 487 x_47_3 + 923 x_48_3 + 29 x_49_3 + 674 x_50_3 + 540 x_51_3
       + 554 x_52_3 + 467 x_53_3 + 46 x_54_3 + 710 x_55_3 + 553 x_56_3
       + 191 x_57_3 + 724 x_58_3 + 730 x_59_3 + 988 x_60_3 + 90 x_61_3
       + 340 x_62_3 + 549 x_63_3 + 196 x_64_3 + 865 x_65_3 + 678 x_66_3
       + 570 x_67_3 + 936 x_68_3 + 722 x_69_3 + 651 x_70_3 + 123 x_71_3
       + 431 x_72_3 + 508 x_73_3 + 585 x_74_3 + 853 x_75_3 + 642 x_76_3
       + 992 x_77_3 + 725 x_78_3 + 286 x_79_3 + 812 x_80_3 + 859 x_81_3
       + 663 x_82_3 + 88 x_83_3 + 179 x_84_3 + 187 x_85_3 + 619 x_86_3
       + 261 x_87_3 + 846 x_88_3 + 192 x_89_3 + 261 x_90_3 + 514 x_91_3
       + 886 x_92_3 + 530 x_93_3 + 849 x_94_3 + 294 x_95_3 + 799 x_96_3
       + 391 x_97_3 + 330 x_98_3 + 298 x_99_3 + 790 x_100_3 <= 100
 c5:   995 x_0_4 + 485 x_1_4 + 326 x_2_4 + 248 x_3_4 + 421 x_4_4 + 322 x_5_4
       + 795 x_6_4 + 43 x_7_4 + 845 x_8_4 + 955 x_9_4 + 252 x_10_4 + 9 x_11_4
       + 901 x_12_4 + 122 x_13_4 + 94 x_14_4 + 738 x_15_4 + 574 x_16_4
       + 715 x_17_4 + 882 x_18_4 + 367 x_19_4 + 984 x_20_4 + 299 x_21_4
       + 433 x_22_4 + 682 x_23_4 + 72 x_24_4 + 874 x_25_4 + 138 x_26_4
       + 856 x_27_4 + 145 x_28_4 + 995 x_29_4 + 529 x_30_4 + 199 x_31_4
       + 277 x_32_4 + 97 x_33_4 + 719 x_34_4 + 242 x_35_4 + 107 x_36_4
       + 122 x_37_4 + 70 x_38_4 + 98 x_39_4 + 600 x_40_4 + 645 x_41_4
       + 267 x_42_4 + 972 x_43_4 + 895 x_44_4 + 213 x_45_4 + 748 x_46_4
       + 487 x_47_4 + 923 x_48_4 + 29 x_49_4 + 674 x_50_4 + 540 x_51_4
       + 554 x_52_4 + 467 x_53_4 + 46 x_54_4 + 710 x_55_4 + 553 x_56_4
       + 191 x_57_4 + 724 x_58_4 + 730 x_59_4 + 988 x_60_4 + 90 x_61_4
       + 340 x_62_4 + 549 x_63_4 + 196 x_64_4 + 865 x_65_4 + 678 x_66_4
       + 570 x_67_4 + 936 x_68_4 + 722 x_69_4 + 651 x_70_4 + 123 x_71_4
       + 431 x_72_4 + 508 x_73_4 + 585 x_74_4 + 853 x_75_4 + 642 x_76_4
       + 992 x_77_4 + 725 x_78_4 + 286 x_79_4 + 812 x_80_4 + 859 x_81_4
       + 663 x_82_4 + 88 x_83_4 + 179 x_84_4 + 187 x_85_4 + 619 x_86_4
       + 261 x_87_4 + 846 x_88_4 + 192 x_89_4 + 261 x_90_4 + 514 x_91_4
       + 886 x_92_4 + 530 x_93_4 + 849 x_94_4 + 294 x_95_4 + 799 x_96_4
       + 391 x_97_4 + 330 x_98_4 + 298 x_99_4 + 790 x_100_4 <= 100
 c6:   x_0_0 + x_0_1 + x_0_2 + x_0_3 + x_0_4 <= 10
 c7:   x_1_0 + x_1_1 + x_1_2 + x_1_3 + x_1_4 <= 10
 c8:   x_2_0 + x_2_1 + x_2_2 + x_2_3 + x_2_4 <= 10
 c9:   x_3_0 + x_3_1 + x_3_2 + x_3_3 + x_3_4 <= 10
 c10:  x_4_0 + x_4_1 + x_4_2 + x_4_3 + x_4_4 <= 10
 c11:  x_5_0 + x_5_1 + x_5_2 + x_5_3 + x_5_4 <= 10
 c12:  x_6_0 + x_6_1 + x_6_2 + x_6_3 + x_6_4 <= 10
 c13:  x_7_0 + x_7_1 + x_7_2 + x_7_3 + x_7_4 <= 10
 c14:  x_8_0 + x_8_1 + x_8_2 + x_8_3 + x_8_4 <= 10
 c15:  x_9_0 + x_9_1 + x_9_2 + x_9_3 + x_9_4 <= 10
 c16:  x_10_0 + x_10_1 + x_10_2 + x_10_3 + x_10_4 <= 10
 c17:  x_11_0 + x_11_1 + x_11_2 + x_11_3 + x_11_4 <= 10
 c18:  x_12_0 + x_12_1 + x_12_2 + x_12_3 + x_12_4 <= 10
 c19:  x_13_0 + x_13_1 + x_13_2 + x_13_3 + x_13_4 <= 10
 c20:  x_14_0 + x_14_1 + x_14_2 + x_14_3 + x_14_4 <= 10
 c21:  x_15_0 + x_15_1 + x_15_2 + x_15_3 + x_15_4 <= 10
 c22:  x_16_0 + x_16_1 + x_16_2 + x_16_3 + x_16_4 <= 10
 c23:  x_17_0 + x_17_1 + x_17_2 + x_17_3 + x_17_4 <= 10
 c24:  x_18_0 + x_18_1 + x_18_2 + x_18_3 + x_18_4 <= 10
 c25:  x_19_0 + x_19_1 + x_19_2 + x_19_3 + x_19_4 <= 10
 c26:  x_20_0 + x_20_1 + x_20_2 + x_20_3 + x_20_4 <= 10
 c27:  x_21_0 + x_21_1 + x_21_2 + x_21_3 + x_21_4 <= 10
 c28:  x_22_0 + x_22_1 + x_22_2 + x_22_3 + x_22_4 <= 10
 c29:  x_23_0 + x_23_1 + x_23_2 + x_23_3 + x_23_4 <= 10
 c30:  x_24_0 + x_24_1 + x_24_2 + x_24_3 + x_24_4 <= 10
 c31:  x_25_0 + x_25_1 + x_25_2 + x_25_3 + x_25_4 <= 10
 c32:  x_26_0 + x_26_1 + x_26_2 + x_26_3 + x_26_4 <= 10
 c33:  x_27_0 + x_27_1 + x_27_2 + x_27_3 + x_27_4 <= 10
 c34:  x_28_0 + x_28_1 + x_28_2 + x_28_3 + x_28_4 <= 10
 c35:  x_29_0 + x_29_1 + x_29_2 + x_29_3 + x_29_4 <= 10
 c36:  x_30_0 + x_30_1 + x_30_2 + x_30_3 + x_30_4 <= 10
 c37:  x_31_0 + x_31_1 + x_31_2 + x_31_3 + x_31_4 <= 10
 c38:  x_32_0 + x_32_1 + x_32_2 + x_32_3 + x_32_4 <= 10
 c39:  x_33_0 + x_33_1 + x_33_2 + x_33_3 + x_33_4 <= 10
 c40:  x_34_0 + x_34_1 + x_34_2 + x_34_3 + x_34_4 <= 10
 c41:  x_35_0 + x_35_1 + x_35_2 + x_35_3 + x_35_4 <= 10
 c42:  x_36_0 + x_36_1 + x_36_2 + x_36_3 + x_36_4 <= 10
 c43:  x_37_0 + x_37_1 + x_37_2 + x_37_3 + x_37_4 <= 10
 c44:  x_38_0 + x_38_1 + x_38_2 + x_38_3 + x_38_4 <= 10
 c45:  x_39_0 + x_39_1 + x_39_2 + x_39_3 + x_39_4 <= 10
 c46:  x_40_0 + x_40_1 + x_40_2 + x_40_3 + x_40_4 <= 10
 c47:  x_41_0 + x_41_1 + x_41_2 + x_41_3 + x_41_4 <= 10
 c48:  x_42_0 + x_42_1 + x_42_2 + x_42_3 + x_42_4 <= 10
 c49:  x_43_0 + x_43_1 + x_43_2 + x_43_3 + x_43_4 <= 10
 c50:  x_44_0 + x_44_1 + x_44_2 + x_44_3 + x_44_4 <= 10
 c51:  x_45_0 + x_45_1 + x_45_2 + x_45_3 + x_45_4 <= 10
 c52:  x_46_0 + x_46_1 + x_46_2 + x_46_3 + x_46_4 <= 10
 c53:  x_47_0 + x_47_1 + x_47_2 + x_47_3 + x_47_4 <= 10
 c54:  x_48_0 + x_48_1 + x_48_2 + x_48_3 + x_48_4 <= 10
 c55:  x_49_0 + x_49_1 + x_49_2 + x_49_3 + x_49_4 <= 10
 c56:  x_50_0 + x_50_1 + x_50_2 + x_50_3 + x_50_4 <= 10
 c57:  x_51_0 + x_51_1 + x_51_2 + x_51_3 + x_51_4 <= 10
 c58:  x_52_0 + x_52_1 + x_52_2 + x_52_3 + x_52_4 <= 10
 c59:  x_53_0 + x_53_1 + x_53_2 + x_53_3 + x_53_4 <= 10
 c60:  x_54_0 + x_54_1 + x_54_2 + x_54_3 + x_54_4 <= 10
 c61:  x_55_0 + x_55_1 + x_55_2 + x_55_3 + x_55_4 <= 10
 c62:  x_56_0 + x_56_1 + x_56_2 + x_56_3 + x_56_4 <= 10
 c63:  x_57_0 + x_57_1 + x_57_2 + x_57_3 + x_57_4 <= 10
 c64:  x_58_0 + x_58_1 + x_58_2 + x_58_3 + x_58_4 <= 10
 c65:  x_59_0 + x_59_1 + x_59_2 + x_59_3 + x_59_4 <= 10
 c66:  x_60_0 + x_60_1 + x_60_2 + x_60_3 + x_60_4 <= 10
 c67:  x_61_0 + x_61_1 + x_61_2 + x_61_3 + x_61_4 <= 10
 c68:  x_62_0 + x_62_1 + x_62_2 + x_62_3 + x_62_4 <= 10
 c69:  x_63_0 + x_63_1 + x_63_2 + x_63_3 + x_63_4 <= 10
 c70:  x_64_0 + x_64_1 + x_64_2 + x_64_3 + x_64_4 <= 10
 c71:  x_65_0 + x_65_1 + x_65_2 + x_65_3 + x_65_4 <= 10
 c72:  x_66_0 + x_66_1 + x_66_2 + x_66_3 + x_66_4 <= 10
 c73:  x_67_0 + x_67_1 + x_67_2 + x_67_3 + x_67_4 <= 10
 c74:  x_68_0 + x_68_1 + x_68_2 + x_68_3 + x_68_4 <= 10
 c75:  x_69_0 + x_69_1 + x_69_2 + x_69_3 + x_69_4 <= 10
 c76:  x_70_0 + x_70_1 + x_70_2 + x_70_3 + x_70_4 <= 10
 c77:  x_71_0 + x_71_1 + x_71_2 + x_71_3 + x_71_4 <= 10
 c78:  x_72_0 + x_72_1 + x_72_2 + x_72_3 + x_72_4 <= 10
 c79:  x_73_0 + x_73_1 + x_73_2 + x_73_3 + x_73_4 <= 10
 c80:  x_74_0 + x_74_1 + x_74_2 + x_74_3 + x_74_4 <= 10
 c81:  x_75_0 + x_75_1 + x_75_2 + x_75_3 + x_75_4 <= 10
 c82:  x_76_0 + x_76_1 + x_76_2 + x_76_3 + x_76_4 <= 10
 c83:  x_77_0 + x_77_1 + x_77_2 + x_77_3 + x_77_4 <= 10
 c84:  x_78_0 + x_78_1 + x_78_2 + x_78_3 + x_78_4 <= 10
 c85:  x_79_0 + x_79_1 + x_79_2 + x_79_3 + x_79_4 <= 10
 c86:  x_80_0 + x_80_1 + x_80_2 + x_80_3 + x_80_4 <= 10
 c87:  x_81_0 + x_81_1 + x_81_2 + x_81_3 + x_81_4 <= 10
 c88:  x_82_0 + x_82_1 + x_82_2 + x_82_3 + x_82_4 <= 10
 c89:  x_83_0 + x_83_1 + x_83_2 + x_83_3 + x_83_4 <= 10
 c90:  x_84_0 + x_84_1 + x_84_2 + x_84_3 + x_84_4 <= 10
 c91:  x_85_0 + x_85_1 + x_85_2 + x_85_3 + x_85_4 <= 10
 c92:  x_86_0 + x_86_1 + x_86_2 + x_86_3 + x_86_4 <= 10
 c93:  x_87_0 + x_87_1 + x_87_2 + x_87_3 + x_87_4 <= 10
 c94:  x_88_0 + x_88_1 + x_88_2 + x_88_3 + x_88_4 <= 10
 c95:  x_89_0 + x_89_1 + x_89_2 + x_89_3 + x_89_4 <= 10
 c96:  x_90_0 + x_90_1 + x_90_2 + x_90_3 + x_90_4 <= 10
 c97:  x_91_0 + x_91_1 + x_91_2 + x_91_3 + x_91_4 <= 10
 c98:  x_92_0 + x_92_1 + x_92_2 + x_92_3 + x_92_4 <= 10
 c99:  x_93_0 + x_93_1 + x_93_2 + x_93_3 + x_93_4 <= 10
 c100: x_94_0 + x_94_1 + x_94_2 + x_94_3 + x_94_4 <= 10
 c101: x_95_0 + x_95_1 + x_95_2 + x_95_3 + x_95_4 <= 10
 c102: x_96_0 + x_96_1 + x_96_2 + x_96_3 + x_96_4 <= 10
 c103: x_97_0 + x_97_1 + x_97_2 + x_97_3 + x_97_4 <= 10
 c104: x_98_0 + x_98_1 + x_98_2 + x_98_3 + x_98_4 <= 10
 c105: x_99_0 + x_99_1 + x_99_2 + x_99_3 + x_99_4 <= 10
 c106: x_100_0 + x_100_1 + x_100_2 + x_100_3 + x_100_4 <= 10
Bounds
      x_0_0 >= 0
      x_0_1 >= 0
      x_0_2 >= 0
      x_0_3 >= 0
      x_0_4 >= 0
      x_1_0 >= 0
      x_1_1 >= 0
      x_1_2 >= 0
      x_1_3 >= 0
      x_1_4 >= 0
      x_2_0 >= 0
      x_2_1 >= 0
      x_2_2 >= 0
      x_2_3 >= 0
      x_2_4 >= 0
      x_3_0 >= 0
      x_3_1 >= 0
      x_3_2 >= 0
      x_3_3 >= 0
      x_3_4 >= 0
      x_4_0 >= 0
      x_4_1 >= 0
      x_4_2 >= 0
      x_4_3 >= 0
      x_4_4 >= 0
      x_5_0 >= 0
      x_5_1 >= 0
      x_5_2 >= 0
      x_5_3 >= 0
      x_5_4 >= 0
      x_6_0 >= 0
      x_6_1 >= 0
      x_6_2 >= 0
      x_6_3 >= 0
      x_6_4 >= 0
      x_7_0 >= 0
      x_7_1 >= 0
      x_7_2 >= 0
      x_7_3 >= 0
      x_7_4 >= 0
      x_8_0 >= 0
      x_8_1 >= 0
      x_8_2 >= 0
      x_8_3 >= 0
      x_8_4 >= 0
      x_9_0 >= 0
      x_9_1 >= 0
      x_9_2 >= 0
      x_9_3 >= 0
      x_9_4 >= 0
      x_10_0 >= 0
      x_10_1 >= 0
      x_10_2 >= 0
      x_10_3 >= 0
      x_10_4 >= 0
      x_11_0 >= 0
      x_11_1 >= 0
      x_11_2 >= 0
      x_11_3 >= 0
      x_11_4 >= 0
      x_12_0 >= 0
      x_12_1 >= 0
      x_12_2 >= 0
      x_12_3 >= 0
      x_12_4 >= 0
      x_13_0 >= 0
      x_13_1 >= 0
      x_13_2 >= 0
      x_13_3 >= 0
      x_13_4 >= 0
      x_14_0 >= 0
      x_14_1 >= 0
      x_14_2 >= 0
      x_14_3 >= 0
      x_14_4 >= 0
      x_15_0 >= 0
      x_15_1 >= 0
      x_15_2 >= 0
      x_15_3 >= 0
      x_15_4 >= 0
      x_16_0 >= 0
      x_16_1 >= 0
      x_16_2 >= 0
      x_16_3 >= 0
      x_16_4 >= 0
      x_17_0 >= 0
      x_17_1 >= 0
      x_17_2 >= 0
      x_17_3 >= 0
      x_17_4 >= 0
      x_18_0 >= 0
      x_18_1 >= 0
      x_18_2 >= 0
      x_18_3 >= 0
      x_18_4 >= 0
      x_19_0 >= 0
      x_19_1 >= 0
      x_19_2 >= 0
      x_19_3 >= 0
      x_19_4 >= 0
      x_20_0 >= 0
      x_20_1 >= 0
      x_20_2 >= 0
      x_20_3 >= 0
      x_20_4 >= 0
      x_21_0 >= 0
      x_21_1 >= 0
      x_21_2 >= 0
      x_21_3 >= 0
      x_21_4 >= 0
      x_22_0 >= 0
      x_22_1 >= 0
      x_22_2 >= 0
      x_22_3 >= 0
      x_22_4 >= 0
      x_23_0 >= 0
      x_23_1 >= 0
      x_23_2 >= 0
      x_23_3 >= 0
      x_23_4 >= 0
      x_24_0 >= 0
      x_24_1 >= 0
      x_24_2 >= 0
      x_24_3 >= 0
      x_24_4 >= 0
      x_25_0 >= 0
      x_25_1 >= 0
      x_25_2 >= 0
      x_25_3 >= 0
      x_25_4 >= 0
      x_26_0 >= 0
      x_26_1 >= 0
      x_26_2 >= 0
      x_26_3 >= 0
      x_26_4 >= 0
      x_27_0 >= 0
      x_27_1 >= 0
      x_27_2 >= 0
      x_27_3 >= 0
      x_27_4 >= 0
      x_28_0 >= 0
      x_28_1 >= 0
      x_28_2 >= 0
      x_28_3 >= 0
      x_28_4 >= 0
      x_29_0 >= 0
      x_29_1 >= 0
      x_29_2 >= 0
      x_29_3 >= 0
      x_29_4 >= 0
      x_30_0 >= 0
      x_30_1 >= 0
      x_30_2 >= 0
      x_30_3 >= 0
      x_30_4 >= 0
      x_31_0 >= 0
      x_31_1 >= 0
      x_31_2 >= 0
      x_31_3 >= 0
      x_31_4 >= 0
      x_32_0 >= 0
      x_32_1 >= 0
      x_32_2 >= 0
      x_32_3 >= 0
      x_32_4 >= 0
      x_33_0 >= 0
      x_33_1 >= 0
      x_33_2 >= 0
      x_33_3 >= 0
      x_33_4 >= 0
      x_34_0 >= 0
      x_34_1 >= 0
      x_34_2 >= 0
      x_34_3 >= 0
      x_34_4 >= 0
      x_35_0 >= 0
      x_35_1 >= 0
      x_35_2 >= 0
      x_35_3 >= 0
      x_35_4 >= 0
      x_36_0 >= 0
      x_36_1 >= 0
      x_36_2 >= 0
      x_36_3 >= 0
      x_36_4 >= 0
      x_37_0 >= 0
      x_37_1 >= 0
      x_37_2 >= 0
      x_37_3 >= 0
      x_37_4 >= 0
      x_38_0 >= 0
      x_38_1 >= 0
      x_38_2 >= 0
      x_38_3 >= 0
      x_38_4 >= 0
      x_39_0 >= 0
      x_39_1 >= 0
      x_39_2 >= 0
      x_39_3 >= 0
      x_39_4 >= 0
      x_40_0 >= 0
      x_40_1 >= 0
      x_40_2 >= 0
      x_40_3 >= 0
      x_40_4 >= 0
      x_41_0 >= 0
      x_41_1 >= 0
      x_41_2 >= 0
      x_41_3 >= 0
      x_41_4 >= 0
      x_42_0 >= 0
      x_42_1 >= 0
      x_42_2 >= 0
      x_42_3 >= 0
      x_42_4 >= 0
      x_43_0 >= 0
      x_43_1 >= 0
      x_43_2 >= 0
      x_43_3 >= 0
      x_43_4 >= 0
      x_44_0 >= 0
      x_44_1 >= 0
      x_44_2 >= 0
      x_44_3 >= 0
      x_44_4 >= 0
      x_45_0 >= 0
      x_45_1 >= 0
      x_45_2 >= 0
      x_45_3 >= 0
      x_45_4 >= 0
      x_46_0 >= 0
      x_46_1 >= 0
      x_46_2 >= 0
      x_46_3 >= 0
      x_46_4 >= 0
      x_47_0 >= 0
      x_47_1 >= 0
      x_47_2 >= 0
      x_47_3 >= 0
      x_47_4 >= 0
      x_48_0 >= 0
      x_48_1 >= 0
      x_48_2 >= 0
      x_48_3 >= 0
      x_48_4 >= 0
      x_49_0 >= 0
      x_49_1 >= 0
      x_49_2 >= 0
      x_49_3 >= 0
      x_49_4 >= 0
      x_50_0 >= 0
      x_50_1 >= 0
      x_50_2 >= 0
      x_50_3 >= 0
      x_50_4 >= 0
      x_51_0 >= 0
      x_51_1 >= 0
      x_51_2 >= 0
      x_51_3 >= 0
      x_51_4 >= 0
      x_52_0 >= 0
      x_52_1 >= 0
      x_52_2 >= 0
      x_52_3 >= 0
      x_52_4 >= 0
      x_53_0 >= 0
      x_53_1 >= 0
      x_53_2 >= 0
      x_53_3 >= 0
      x_53_4 >= 0
      x_54_0 >= 0
      x_54_1 >= 0
      x_54_2 >= 0
      x_54_3 >= 0
      x_54_4 >= 0
      x_55_0 >= 0
      x_55_1 >= 0
      x_55_2 >= 0
      x_55_3 >= 0
      x_55_4 >= 0
      x_56_0 >= 0
      x_56_1 >= 0
      x_56_2 >= 0
      x_56_3 >= 0
      x_56_4 >= 0
      x_57_0 >= 0
      x_57_1 >= 0
      x_57_2 >= 0
      x_57_3 >= 0
      x_57_4 >= 0
      x_58_0 >= 0
      x_58_1 >= 0
      x_58_2 >= 0
      x_58_3 >= 0
      x_58_4 >= 0
      x_59_0 >= 0
      x_59_1 >= 0
      x_59_2 >= 0
      x_59_3 >= 0
      x_59_4 >= 0
      x_60_0 >= 0
      x_60_1 >= 0
      x_60_2 >= 0
      x_60_3 >= 0
      x_60_4 >= 0
      x_61_0 >= 0
      x_61_1 >= 0
      x_61_2 >= 0
      x_61_3 >= 0
      x_61_4 >= 0
      x_62_0 >= 0
      x_62_1 >= 0
      x_62_2 >= 0
      x_62_3 >= 0
      x_62_4 >= 0
      x_63_0 >= 0
      x_63_1 >= 0
      x_63_2 >= 0
      x_63_3 >= 0
      x_63_4 >= 0
      x_64_0 >= 0
      x_64_1 >= 0
      x_64_2 >= 0
      x_64_3 >= 0
      x_64_4 >= 0
      x_65_0 >= 0
      x_65_1 >= 0
      x_65_2 >= 0
      x_65_3 >= 0
      x_65_4 >= 0
      x_66_0 >= 0
      x_66_1 >= 0
      x_66_2 >= 0
      x_66_3 >= 0
      x_66_4 >= 0
      x_67_0 >= 0
      x_67_1 >= 0
      x_67_2 >= 0
      x_67_3 >= 0
      x_67_4 >= 0
      x_68_0 >= 0
      x_68_1 >= 0
      x_68_2 >= 0
      x_68_3 >= 0
      x_68_4 >= 0
      x_69_0 >= 0
      x_69_1 >= 0
      x_69_2 >= 0
      x_69_3 >= 0
      x_69_4 >= 0
      x_70_0 >= 0
      x_70_1 >= 0
      x_70_2 >= 0
      x_70_3 >= 0
      x_70_4 >= 0
      x_71_0 >= 0
      x_71_1 >= 0
      x_71_2 >= 0
      x_71_3 >= 0
      x_71_4 >= 0
      x_72_0 >= 0
      x_72_1 >= 0
      x_72_2 >= 0
      x_72_3 >= 0
      x_72_4 >= 0
      x_73_0 >= 0
      x_73_1 >= 0
      x_73_2 >= 0
      x_73_3 >= 0
      x_73_4 >= 0
      x_74_0 >= 0
      x_74_1 >= 0
      x_74_2 >= 0
      x_74_3 >= 0
      x_74_4 >= 0
      x_75_0 >= 0
      x_75_1 >= 0
      x_75_2 >= 0
      x_75_3 >= 0
      x_75_4 >= 0
      x_76_0 >= 0
      x_76_1 >= 0
      x_76_2 >= 0
      x_76_3 >= 0
      x_76_4 >= 0
      x_77_0 >= 0
      x_77_1 >= 0
      x_77_2 >= 0
      x_77_3 >= 0
      x_77_4 >= 0
      x_78_0 >= 0
      x_78_1 >= 0
      x_78_2 >= 0
      x_78_3 >= 0
      x_78_4 >= 0
      x_79_0 >= 0
      x_79_1 >= 0
      x_79_2 >= 0
      x_79_3 >= 0
      x_79_4 >= 0
      x_80_0 >= 0
      x_80_1 >= 0
      x_80_2 >= 0
      x_80_3 >= 0
      x_80_4 >= 0
      x_81_0 >= 0
      x_81_1 >= 0
      x_81_2 >= 0
      x_81_3 >= 0
      x_81_4 >= 0
      x_82_0 >= 0
      x_82_1 >= 0
      x_82_2 >= 0
      x_82_3 >= 0
      x_82_4 >= 0
      x_83_0 >= 0
      x_83_1 >= 0
      x_83_2 >= 0
      x_83_3 >= 0
      x_83_4 >= 0
      x_84_0 >= 0
      x_84_1 >= 0
      x_84_2 >= 0
      x_84_3 >= 0
      x_84_4 >= 0
      x_85_0 >= 0
      x_85_1 >= 0
      x_85_2 >= 0
      x_85_3 >= 0
      x_85_4 >= 0
      x_86_0 >= 0
      x_86_1 >= 0
      x_86_2 >= 0
      x_86_3 >= 0
      x_86_4 >= 0
      x_87_0 >= 0
      x_87_1 >= 0
      x_87_2 >= 0
      x_87_3 >= 0
      x_87_4 >= 0
      x_88_0 >= 0
      x_88_1 >= 0
      x_88_2 >= 0
      x_88_3 >= 0
      x_88_4 >= 0
      x_89_0 >= 0
      x_89_1 >= 0
      x_89_2 >= 0
      x_89_3 >= 0
      x_89_4 >= 0
      x_90_0 >= 0
      x_90_1 >= 0
      x_90_2 >= 0
      x_90_3 >= 0
      x_90_4 >= 0
      x_91_0 >= 0
      x_91_1 >= 0
      x_91_2 >= 0
      x_91_3 >= 0
      x_91_4 >= 0
      x_92_0 >= 0
      x_92_1 >= 0
      x_92_2 >= 0
      x_92_3 >= 0
      x_92_4 >= 0
      x_93_0 >= 0
      x_93_1 >= 0
      x_93_2 >= 0
      x_93_3 >= 0
      x_93_4 >= 0
      x_94_0 >= 0
      x_94_1 >= 0
      x_94_2 >= 0
      x_94_3 >= 0
      x_94_4 >= 0
      x_95_0 >= 0
      x_95_1 >= 0
      x_95_2 >= 0
      x_95_3 >= 0
      x_95_4 >= 0
      x_96_0 >= 0
      x_96_1 >= 0
      x_96_2 >= 0
      x_96_3 >= 0
      x_96_4 >= 0
      x_97_0 >= 0
      x_97_1 >= 0
      x_97_2 >= 0
      x_97_3 >= 0
      x_97_4 >= 0
      x_98_0 >= 0
      x_98_1 >= 0
      x_98_2 >= 0
      x_98_3 >= 0
      x_98_4 >= 0
      x_99_0 >= 0
      x_99_1 >= 0
      x_99_2 >= 0
      x_99_3 >= 0
      x_99_4 >= 0
      x_100_0 >= 0
      x_100_1 >= 0
      x_100_2 >= 0
      x_100_3 >= 0
      x_100_4 >= 0
Generals
 x_0_0  x_0_1  x_0_2  x_0_3  x_0_4  x_1_0  x_1_1  x_1_2  x_1_3  x_1_4  x_2_0 
 x_2_1  x_2_2  x_2_3  x_2_4  x_3_0  x_3_1  x_3_2  x_3_3  x_3_4  x_4_0  x_4_1 
 x_4_2  x_4_3  x_4_4  x_5_0  x_5_1  x_5_2  x_5_3  x_5_4  x_6_0  x_6_1  x_6_2 
 x_6_3  x_6_4  x_7_0  x_7_1  x_7_2  x_7_3  x_7_4  x_8_0  x_8_1  x_8_2  x_8_3 
 x_8_4  x_9_0  x_9_1  x_9_2  x_9_3  x_9_4  x_10_0  x_10_1  x_10_2  x_10_3 
 x_10_4  x_11_0  x_11_1  x_11_2  x_11_3  x_11_4  x_12_0  x_12_1  x_12_2 
 x_12_3  x_12_4  x_13_0  x_13_1  x_13_2  x_13_3  x_13_4  x_14_0  x_14_1 
 x_14_2  x_14_3  x_14_4  x_15_0  x_15_1  x_15_2  x_15_3  x_15_4  x_16_0 
 x_16_1  x_16_2  x_16_3  x_16_4  x_17_0  x_17_1  x_17_2  x_17_3  x_17_4 
 x_18_0  x_18_1  x_18_2  x_18_3  x_18_4  x_19_0  x_19_1  x_19_2  x_19_3 
 x_19_4  x_20_0  x_20_1  x_20_2  x_20_3  x_20_4  x_21_0  x_21_1  x_21_2 
 x_21_3  x_21_4  x_22_0  x_22_1  x_22_2  x_22_3  x_22_4  x_23_0  x_23_1 
 x_23_2  x_23_3  x_23_4  x_24_0  x_24_1  x_24_2  x_24_3  x_24_4  x_25_0 
 x_25_1  x_25_2  x_25_3  x_25_4  x_26_0  x_26_1  x_26_2  x_26_3  x_26_4 
 x_27_0  x_27_1  x_27_2  x_27_3  x_27_4  x_28_0  x_28_1  x_28_2  x_28_3 
 x_28_4  x_29_0  x_29_1  x_29_2  x_29_3  x_29_4  x_30_0  x_30_1  x_30_2 
 x_30_3  x_30_4  x_31_0  x_31_1  x_31_2  x_31_3  x_31_4  x_32_0  x_32_1 
 x_32_2  x_32_3  x_32_4  x_33_0  x_33_1  x_33_2  x_33_3  x_33_4  x_34_0 
 x_34_1  x_34_2  x_34_3  x_34_4  x_35_0  x_35_1  x_35_2  x_35_3  x_35_4 
 x_36_0  x_36_1  x_36_2  x_36_3  x_36_4  x_37_0  x_37_1  x_37_2  x_37_3 
 x_37_4  x_38_0  x_38_1  x_38_2  x_38_3  x_38_4  x_39_0  x_39_1  x_39_2 
 x_39_3  x_39_4  x_40_0  x_40_1  x_40_2  x_40_3  x_40_4  x_41_0  x_41_1 
 x_41_2  x_41_3  x_41_4  x_42_0  x_42_1  x_42_2  x_42_3  x_42_4  x_43_0 
 x_43_1  x_43_2  x_43_3  x_43_4  x_44_0  x_44_1  x_44_2  x_44_3  x_44_4 
 x_45_0  x_45_1  x_45_2  x_45_3  x_45_4  x_46_0  x_46_1  x_46_2  x_46_3 
 x_46_4  x_47_0  x_47_1  x_47_2  x_47_3  x_47_4  x_48_0  x_48_1  x_48_2 
 x_48_3  x_48_4  x_49_0  x_49_1  x_49_2  x_49_3  x_49_4  x_50_0  x_50_1 
 x_50_2  x_50_3  x_50_4  x_51_0  x_51_1  x_51_2  x_51_3  x_51_4  x_52_0 
 x_52_1  x_52_2  x_52_3  x_52_4  x_53_0  x_53_1  x_53_2  x_53_3  x_53_4 
 x_54_0  x_54_1  x_54_2  x_54_3  x_54_4  x_55_0  x_55_1  x_55_2  x_55_3 
 x_55_4  x_56_0  x_56_1  x_56_2  x_56_3  x_56_4  x_57_0  x_57_1  x_57_2 
 x_57_3  x_57_4  x_58_0  x_58_1  x_58_2  x_58_3  x_58_4  x_59_0  x_59_1 
 x_59_2  x_59_3  x_59_4  x_60_0  x_60_1  x_60_2  x_60_3  x_60_4  x_61_0 
 x_61_1  x_61_2  x_61_3  x_61_4  x_62_0  x_62_1  x_62_2  x_62_3  x_62_4 
 x_63_0  x_63_1  x_63_2  x_63_3  x_63_4  x_64_0  x_64_1  x_64_2  x_64_3 
 x_64_4  x_65_0  x_65_1  x_65_2  x_65_3  x_65_4  x_66_0  x_66_1  x_66_2 
 x_66_3  x_66_4  x_67_0  x_67_1  x_67_2  x_67_3  x_67_4  x_68_0  x_68_1 
 x_68_2  x_68_3  x_68_4  x_69_0  x_69_1  x_69_2  x_69_3  x_69_4  x_70_0 
 x_70_1  x_70_2  x_70_3  x_70_4  x_71_0  x_71_1  x_71_2  x_71_3  x_71_4 
 x_72_0  x_72_1  x_72_2  x_72_3  x_72_4  x_73_0  x_73_1  x_73_2  x_73_3 
 x_73_4  x_74_0  x_74_1  x_74_2  x_74_3  x_74_4  x_75_0  x_75_1  x_75_2 
 x_75_3  x_75_4  x_76_0  x_76_1  x_76_2  x_76_3  x_76_4  x_77_0  x_77_1 
 x_77_2  x_77_3  x_77_4  x_78_0  x_78_1  x_78_2  x_78_3  x_78_4  x_79_0 
 x_79_1  x_79_2  x_79_3  x_79_4  x_80_0  x_80_1  x_80_2  x_80_3  x_80_4 
 x_81_0  x_81_1  x_81_2  x_81_3  x_81_4  x_82_0  x_82_1  x_82_2  x_82_3 
 x_82_4  x_83_0  x_83_1  x_83_2  x_83_3  x_83_4  x_84_0  x_84_1  x_84_2 
 x_84_3  x_84_4  x_85_0  x_85_1  x_85_2  x_85_3  x_85_4  x_86_0  x_86_1 
 x_86_2  x_86_3  x_86_4  x_87_0  x_87_1  x_87_2  x_87_3  x_87_4  x_88_0 
 x_88_1  x_88_2  x_88_3  x_88_4  x_89_0  x_89_1  x_89_2  x_89_3  x_89_4 
 x_90_0  x_90_1  x_90_2  x_90_3  x_90_4  x_91_0  x_91_1  x_91_2  x_91_3 
 x_91_4  x_92_0  x_92_1  x_92_2  x_92_3  x_92_4  x_93_0  x_93_1  x_93_2 
 x_93_3  x_93_4  x_94_0  x_94_1  x_94_2  x_94_3  x_94_4  x_95_0  x_95_1 
 x_95_2  x_95_3  x_95_4  x_96_0  x_96_1  x_96_2  x_96_3  x_96_4  x_97_0 
 x_97_1  x_97_2  x_97_3  x_97_4  x_98_0  x_98_1  x_98_2  x_98_3  x_98_4 
 x_99_0  x_99_1  x_99_2  x_99_3  x_99_4  x_100_0  x_100_1  x_100_2  x_100_3 
 x_100_4 
End
